50
120
99
86
83
83
78
76
68
59
58
58
54
53
53
51
51
48
47
45
43
40
37
32
32
32
32
31
31
28
24
22
20
19
19
19
19
15
14
13
12
12
11
10
10
10
10
6
5
4
2
1
